(declare-const |i':59:72| Int)
(declare-const |y':61:70| Int)
(declare-const |K:68:69| Int)
(declare-const |x':60:71| Int)
(declare-const |havoc:0| Int)
(declare-const |havoc:6:13:58| Int)
(assert (and (< (- |havoc:0|) 0)
               (or (not (and (<= (- |K:68:69|) 0) (<= |K:68:69| 0)))
                     (= (+ (- |x':60:71|) |y':61:70|) 0))
               (or (not (<= (+ (- |K:68:69|) 1) 0))
                     (= (+ (- |x':60:71|) |y':61:70|) 0))
               (or (not (<= (- |K:68:69|) 0))
                     (= (+ |i':59:72| (- |K:68:69|)) 0))
               (or (and (= |K:68:69| 0) (= (- |y':61:70|) 0)
                          (= (- |x':60:71|) 0) (= (- |i':59:72|) 0))
                     (and (<= (+ (- |K:68:69|) 1) 0)
                            (<= (+ (- |havoc:0|) 1) 0)
                            (= (+ (- |x':60:71|) |y':61:70|) 0)
                            (<= (+ |i':59:72| (- |havoc:0|)) 0)
                            (<= (+ (- |i':59:72|) 1) 0)))
               (<= (- |K:68:69|) 0) (<= (- |i':59:72|) 0) (< (- |havoc:0|) 0)
               (= (+ |x':60:71| (- |y':61:70|)) 0)
               (< (+ |i':59:72| (- |havoc:0|)) 0)
               (= (+ |x':60:71| (- |y':61:70|)) 0)
               (or (< |havoc:6:13:58| 0) (< (- |havoc:6:13:58|) 0))
               (not (or (< (+ |havoc:6:13:58| |x':60:71| (- |y':61:70|)) 0)
                          (< (+ (- |havoc:6:13:58|) (- |x':60:71|) |y':61:70|) 0)))))
(check-sat)
